c This is QMaxSAT 2017 based on 14.07
c This is Glucose 3.0
c This is MiniSat 2.2.0
c WARNING: for repeatability, setting FPU to use double precision
c card = mrwto, comp = 0, pmodel = 0, narr = 4, mct = 29, verb = 0
cr firstCPXsol 0 0 0
c top = 167313
c |  Number of variables:    24532                                            |
c |  Number of clauses:      8079464                                          |
c |  Weight of hard clauses: 167313                                           |
c |  Number of soft clauses: 3248                                             |
c |  Number of unit soft clauses: 3248                                        |
c |  Maximum Cardinality (by unit): 669248       (669248      )               |
c last restart ## conflicts  :  114 8432 
o 3596 | cpuTime 1.39245 s
c Sum of weights = 167312
c A number of soft clauses remained = 812
c MRWTO encoding for Pseudo-Boolean Constraints
c sizeMax=3596
c No.0 Divisor=16	generated by pow1
c No.1 Divisor=16	generated by pow1
c No.2 Divisor=16	generated by pow1
c p0= 16	p1= 16	p2= 16	
c number of digits = 4
c linkingVar[0].size = 16, linkingVar[1].size = 16, linkingVar[2].size = 15, linkingVar[3].size = 1, 
c Pseudo-Boolean Constraints: 21248 variables and 271933 clauses
c Sum of weights = 167312
c A number of soft clauses remained = 812
c MRWTO encoding for Pseudo-Boolean Constraints
c sizeMax=3596
c No.0 Divisor=16	generated by pow1
c No.1 Divisor=16	generated by pow1
c No.2 Divisor=16	generated by pow1
c p0= 16	p1= 16	p2= 16	
c number of digits = 4
c linkingVar[0].size = 16, linkingVar[1].size = 16, linkingVar[2].size = 15, linkingVar[3].size = 1, 
c Pseudo-Boolean Constraints: 21248 variables and 271933 clauses
c Sum of weights = 167312
c A number of soft clauses remained = 812
c MRWTO encoding for Pseudo-Boolean Constraints
c sizeMax=3596
c No.0 Divisor=16	generated by pow1
c No.1 Divisor=16	generated by pow1
c No.2 Divisor=16	generated by pow1
c p0= 16	p1= 16	p2= 16	
c number of digits = 4
c linkingVar[0].size = 16, linkingVar[1].size = 16, linkingVar[2].size = 15, linkingVar[3].size = 1, 
c Pseudo-Boolean Constraints: 21248 variables and 271933 clauses
c Sum of weights = 167312
c A number of soft clauses remained = 812
c MRWTO encoding for Pseudo-Boolean Constraints
c sizeMax=3596
c No.0 Divisor=16	generated by pow1
c No.1 Divisor=16	generated by pow1
c No.2 Divisor=16	generated by pow1
c p0= 16	p1= 16	p2= 16	
c number of digits = 4
c linkingVar[0].size = 16, linkingVar[1].size = 16, linkingVar[2].size = 15, linkingVar[3].size = 1, 
c Pseudo-Boolean Constraints: 21248 variables and 271933 clauses
c last restart ## conflicts  :  216 13439 
o 2083 | cpuTime 2.08418 s
c last restart ## conflicts  :  330 8387 
o 1866 | cpuTime 6.7957 s
c last restart ## conflicts  :  1333 14029 
o 1648 | cpuTime 7.18555 s
c last restart ## conflicts  :  311 8887 
o 1563 | cpuTime 13.6364 s
c last restart ## conflicts  :  24 34888 
o 1430 | cpuTime 13.6629 s
c last restart ## conflicts  :  23 10230 
o 1423 | cpuTime 22.22 s
c last restart ## conflicts  :  419 8734 
o 1191 | cpuTime 25.3696 s
c last restart ## conflicts  :  722 9349 
o 1141 | cpuTime 106.444 s
c last restart ## conflicts  :  1787 10766 
o 1098 | cpuTime 320.954 s
c last restart ## conflicts  :  1346 10213 
o 1058 | cpuTime 406.189 s
c last restart ## conflicts  :  325 8026 
o 1008 | cpuTime 1495.18 s
s UNKNOWN
c Search is stopped by a limit (maybe time-limit)
cr positiVarArr: [ | 16@1(1->16) | 84@1(3->26) | 128@1(5->12) | 146@1(6->1) | 237@1(9->5) | 281@1(10->20) | 325@1(12->6) | 454@1(16->19) | 532@1(19->10) | 554@1(20->3) | 734@1(26->9) | 843@2(1->2) | 874@2(2->4) | 935@2(4->7) | 1043@2(7->28) | 1045@2(8->1) | 1516@2(24->8) | 1648@2(28->24) | 1703@3(1->21) | 2291@3(21->29) | 2321@3(23->1) | 2401@3(25->23) | 2461@3(27->25) | 2521@3(29->27) | 2536@4(1->13) | 2828@4(11->15) | 2882@4(13->11) | 2918@4(14->18) | 2943@4(15->14) | 2988@4(17->1) | 3038@4(18->22) | 3149@4(22->17) | ]
cr the 1-th chain: [ 1->16->19->10->20->3->26->9->5->12->6->1 ] (#non-depot=10) {#cumul.=11}
cr the 2-th chain: [ 1->2->4->7->28->24->8->1 ] (#non-depot=6) {#cumul.=17}
cr the 3-th chain: [ 1->21->29->27->25->23->1 ] (#non-depot=5) {#cumul.=22}
cr the 4-th chain: [ 1->13->11->15->14->18->22->17->1 ] (#non-depot=7) {#cumul.=29}
c Latest Answer = 0 by 12 loops
c restarts              : 94532
c conflicts             : 15240941       (4247 /sec)
c decisions             : 126911960      (0.00 % random) (35368 /sec)
c propagations          : 19308721929    (5380934 /sec)
c conflict literals     : 3451951474     (24.74 % deleted)
c Memory used           : 1226.00 MB
c CPU time              : 3588.36 s
